
<<< setup

Tried aggregator 1 time.
LP Presolve eliminated 106 rows and 86 columns.
Reduced LP has 1 rows, 5 columns, and 5 nonzeros.
Presolve time = 0.00 sec. (0.04 ticks)

Iteration log . . .
Iteration:     1   Dual objective     =          1257.542250
main returns 0

<<< main


<<< done

